words_hard_train/2782.qaiger
aag 182 24 0 1 158
2
4
12
14
18
22
26
30
34
44
46
50
54
58
62
66
70
80
88
104
120
136
152
168
365
6 2 4
8 3 5
10 7 9
16 13 15
20 16 19
24 20 23
28 24 27
32 28 31
36 32 35
38 10 37
40 11 36
42 39 41
48 45 47
52 48 51
56 52 55
60 56 59
64 60 63
68 64 67
72 68 71
74 43 73
76 42 72
78 75 77
82 80 12
84 12 14
86 85 17
90 87 89
92 86 88
94 91 93
96 82 94
98 97 93
100 17 18
102 101 21
106 103 105
108 102 104
110 107 109
112 99 110
114 113 109
116 21 22
118 117 25
122 119 121
124 118 120
126 123 125
128 115 126
130 129 125
132 25 26
134 133 29
138 135 137
140 134 136
142 139 141
144 131 142
146 145 141
148 29 30
150 149 33
154 151 153
156 150 152
158 155 157
160 147 158
162 161 157
164 33 34
166 165 37
170 167 169
172 166 168
174 171 173
176 163 174
178 177 173
180 79 178
182 78 179
184 181 183
186 81 13
188 187 44
190 188 83
192 44 46
194 49 71
196 193 194
198 46 70
200 197 199
202 83 95
204 203 97
206 200 205
208 201 204
210 207 209
212 190 210
214 213 209
216 195 51
218 194 50
220 217 219
222 98 111
224 223 113
226 221 225
228 220 224
230 227 229
232 215 230
234 233 229
236 53 71
238 237 55
240 236 54
242 239 241
244 114 127
246 245 129
248 243 247
250 242 246
252 249 251
254 235 252
256 255 251
258 57 71
260 259 59
262 258 58
264 261 263
266 130 143
268 267 145
270 265 269
272 264 268
274 271 273
276 257 274
278 277 273
280 61 71
282 281 63
284 280 62
286 283 285
288 146 159
290 289 161
292 287 291
294 286 290
296 293 295
298 279 296
300 299 295
302 65 71
304 303 67
306 302 66
308 305 307
310 162 175
312 311 177
314 309 313
316 308 312
318 315 317
320 301 318
322 321 317
324 185 323
326 184 322
328 325 327
330 191 211
332 331 213
334 214 231
336 335 233
338 333 337
340 234 253
342 341 255
344 256 275
346 345 277
348 343 347
350 278 297
352 351 299
354 348 353
356 300 319
358 357 321
360 354 359
362 338 360
364 329 363
i0 2 y1[7]
i1 1 x1[7]
i2 1 x1[0]
i3 1 x1[1]
i4 1 x1[2]
i5 1 x1[3]
i6 1 x1[4]
i7 1 x1[5]
i8 1 x1[6]
i9 1 x2[0]
i10 1 x2[1]
i11 1 x2[2]
i12 1 x2[3]
i13 1 x2[4]
i14 1 x2[5]
i15 1 x2[6]
i16 1 x2[7]
i17 2 y1[0]
i18 2 y1[1]
i19 2 y1[2]
i20 2 y1[3]
i21 2 y1[4]
i22 2 y1[5]
i23 2 y1[6]
o0 bv[0]
c
simplified
  <=
    subtract
      subtract
        2 y1
        1 x1
      abs
        1 x2
    1
