words_hard_train/2782.qaiger.qdimacs
p cnf 182 475
a 33 2 35 6 7 9 11 13 15 17 22 23 25 27 29 31 0
e 1 3 4 5 8 10 12 14 16 18 19 20 21 24 26 28 30 32 34 36 37 38 39 40 41 42 43 44 45 46 47 48 49 50 51 52 53 54 55 56 57 58 59 60 61 62 63 64 65 66 67 68 69 70 71 72 73 74 75 76 77 78 79 80 81 82 83 84 85 86 87 88 89 90 91 92 93 94 95 96 97 98 99 100 101 102 103 104 105 106 107 108 109 110 111 112 113 114 115 116 117 118 119 120 121 122 123 124 125 126 127 128 129 130 131 132 133 134 135 136 137 138 139 140 141 142 143 144 145 146 147 148 149 150 151 152 153 154 155 156 157 158 159 160 161 162 163 164 165 166 167 168 169 170 171 172 173 174 175 176 177 178 179 180 181 182 0
-1 -2 3 0
1 -3 0
2 -3 0
1 2 4 0
-1 -4 0
-2 -4 0
3 4 5 0
-3 -5 0
-4 -5 0
6 7 8 0
-6 -8 0
-7 -8 0
-8 9 10 0
8 -10 0
-9 -10 0
-10 11 12 0
10 -12 0
-11 -12 0
-12 13 14 0
12 -14 0
-13 -14 0
-14 15 16 0
14 -16 0
-15 -16 0
-16 17 18 0
16 -18 0
-17 -18 0
-5 18 19 0
5 -19 0
-18 -19 0
5 -18 20 0
-5 -20 0
18 -20 0
19 20 21 0
-19 -21 0
-20 -21 0
22 23 24 0
-22 -24 0
-23 -24 0
-24 25 26 0
24 -26 0
-25 -26 0
-26 27 28 0
26 -28 0
-27 -28 0
-28 29 30 0
28 -30 0
-29 -30 0
-30 31 32 0
30 -32 0
-31 -32 0
-32 33 34 0
32 -34 0
-33 -34 0
-34 35 36 0
34 -36 0
-35 -36 0
21 36 37 0
-21 -37 0
-36 -37 0
-21 -36 38 0
21 -38 0
36 -38 0
37 38 39 0
-37 -39 0
-38 -39 0
-40 -6 41 0
40 -41 0
6 -41 0
-6 -7 42 0
6 -42 0
7 -42 0
42 8 43 0
-42 -43 0
-8 -43 0
43 44 45 0
-43 -45 0
-44 -45 0
-43 -44 46 0
43 -46 0
44 -46 0
45 46 47 0
-45 -47 0
-46 -47 0
-41 -47 48 0
41 -48 0
47 -48 0
48 46 49 0
-48 -49 0
-46 -49 0
8 -9 50 0
-8 -50 0
9 -50 0
50 10 51 0
-50 -51 0
-10 -51 0
51 52 53 0
-51 -53 0
-52 -53 0
-51 -52 54 0
51 -54 0
52 -54 0
53 54 55 0
-53 -55 0
-54 -55 0
49 -55 56 0
-49 -56 0
55 -56 0
56 54 57 0
-56 -57 0
-54 -57 0
10 -11 58 0
-10 -58 0
11 -58 0
58 12 59 0
-58 -59 0
-12 -59 0
59 60 61 0
-59 -61 0
-60 -61 0
-59 -60 62 0
59 -62 0
60 -62 0
61 62 63 0
-61 -63 0
-62 -63 0
57 -63 64 0
-57 -64 0
63 -64 0
64 62 65 0
-64 -65 0
-62 -65 0
12 -13 66 0
-12 -66 0
13 -66 0
66 14 67 0
-66 -67 0
-14 -67 0
67 68 69 0
-67 -69 0
-68 -69 0
-67 -68 70 0
67 -70 0
68 -70 0
69 70 71 0
-69 -71 0
-70 -71 0
65 -71 72 0
-65 -72 0
71 -72 0
72 70 73 0
-72 -73 0
-70 -73 0
14 -15 74 0
-14 -74 0
15 -74 0
74 16 75 0
-74 -75 0
-16 -75 0
75 76 77 0
-75 -77 0
-76 -77 0
-75 -76 78 0
75 -78 0
76 -78 0
77 78 79 0
-77 -79 0
-78 -79 0
73 -79 80 0
-73 -80 0
79 -80 0
80 78 81 0
-80 -81 0
-78 -81 0
16 -17 82 0
-16 -82 0
17 -82 0
82 18 83 0
-82 -83 0
-18 -83 0
83 84 85 0
-83 -85 0
-84 -85 0
-83 -84 86 0
83 -86 0
84 -86 0
85 86 87 0
-85 -87 0
-86 -87 0
81 -87 88 0
-81 -88 0
87 -88 0
88 86 89 0
-88 -89 0
-86 -89 0
39 -89 90 0
-39 -90 0
89 -90 0
-39 89 91 0
39 -91 0
-89 -91 0
90 91 92 0
-90 -92 0
-91 -92 0
40 6 93 0
-40 -93 0
-6 -93 0
93 -22 94 0
-93 -94 0
22 -94 0
-94 41 95 0
94 -95 0
-41 -95 0
-22 -23 96 0
22 -96 0
23 -96 0
24 35 97 0
-24 -97 0
-35 -97 0
96 -97 98 0
-96 -98 0
97 -98 0
-23 -35 99 0
23 -99 0
35 -99 0
98 99 100 0
-98 -100 0
-99 -100 0
41 47 101 0
-41 -101 0
-47 -101 0
101 48 102 0
-101 -102 0
-48 -102 0
-100 102 103 0
100 -103 0
-102 -103 0
100 -102 104 0
-100 -104 0
102 -104 0
103 104 105 0
-103 -105 0
-104 -105 0
-95 -105 106 0
95 -106 0
105 -106 0
106 104 107 0
-106 -107 0
-104 -107 0
97 25 108 0
-97 -108 0
-25 -108 0
-97 -25 109 0
97 -109 0
25 -109 0
108 109 110 0
-108 -110 0
-109 -110 0
-49 55 111 0
49 -111 0
-55 -111 0
111 56 112 0
-111 -112 0
-56 -112 0
110 112 113 0
-110 -113 0
-112 -113 0
-110 -112 114 0
110 -114 0
112 -114 0
113 114 115 0
-113 -115 0
-114 -115 0
107 -115 116 0
-107 -116 0
115 -116 0
116 114 117 0
-116 -117 0
-114 -117 0
26 35 118 0
-26 -118 0
-35 -118 0
118 27 119 0
-118 -119 0
-27 -119 0
-118 -27 120 0
118 -120 0
27 -120 0
119 120 121 0
-119 -121 0
-120 -121 0
-57 63 122 0
57 -122 0
-63 -122 0
122 64 123 0
-122 -123 0
-64 -123 0
121 123 124 0
-121 -124 0
-123 -124 0
-121 -123 125 0
121 -125 0
123 -125 0
124 125 126 0
-124 -126 0
-125 -126 0
117 -126 127 0
-117 -127 0
126 -127 0
127 125 128 0
-127 -128 0
-125 -128 0
28 35 129 0
-28 -129 0
-35 -129 0
129 29 130 0
-129 -130 0
-29 -130 0
-129 -29 131 0
129 -131 0
29 -131 0
130 131 132 0
-130 -132 0
-131 -132 0
-65 71 133 0
65 -133 0
-71 -133 0
133 72 134 0
-133 -134 0
-72 -134 0
132 134 135 0
-132 -135 0
-134 -135 0
-132 -134 136 0
132 -136 0
134 -136 0
135 136 137 0
-135 -137 0
-136 -137 0
128 -137 138 0
-128 -138 0
137 -138 0
138 136 139 0
-138 -139 0
-136 -139 0
30 35 140 0
-30 -140 0
-35 -140 0
140 31 141 0
-140 -141 0
-31 -141 0
-140 -31 142 0
140 -142 0
31 -142 0
141 142 143 0
-141 -143 0
-142 -143 0
-73 79 144 0
73 -144 0
-79 -144 0
144 80 145 0
-144 -145 0
-80 -145 0
143 145 146 0
-143 -146 0
-145 -146 0
-143 -145 147 0
143 -147 0
145 -147 0
146 147 148 0
-146 -148 0
-147 -148 0
139 -148 149 0
-139 -149 0
148 -149 0
149 147 150 0
-149 -150 0
-147 -150 0
32 35 151 0
-32 -151 0
-35 -151 0
151 33 152 0
-151 -152 0
-33 -152 0
-151 -33 153 0
151 -153 0
33 -153 0
152 153 154 0
-152 -154 0
-153 -154 0
-81 87 155 0
81 -155 0
-87 -155 0
155 88 156 0
-155 -156 0
-88 -156 0
154 156 157 0
-154 -157 0
-156 -157 0
-154 -156 158 0
154 -158 0
156 -158 0
157 158 159 0
-157 -159 0
-158 -159 0
150 -159 160 0
-150 -160 0
159 -160 0
160 158 161 0
-160 -161 0
-158 -161 0
92 161 162 0
-92 -162 0
-161 -162 0
-92 -161 163 0
92 -163 0
161 -163 0
162 163 164 0
-162 -164 0
-163 -164 0
95 105 165 0
-95 -165 0
-105 -165 0
165 106 166 0
-165 -166 0
-106 -166 0
-107 115 167 0
107 -167 0
-115 -167 0
167 116 168 0
-167 -168 0
-116 -168 0
166 168 169 0
-166 -169 0
-168 -169 0
-117 126 170 0
117 -170 0
-126 -170 0
170 127 171 0
-170 -171 0
-127 -171 0
-128 137 172 0
128 -172 0
-137 -172 0
172 138 173 0
-172 -173 0
-138 -173 0
171 173 174 0
-171 -174 0
-173 -174 0
-139 148 175 0
139 -175 0
-148 -175 0
175 149 176 0
-175 -176 0
-149 -176 0
-174 176 177 0
174 -177 0
-176 -177 0
-150 159 178 0
150 -178 0
-159 -178 0
178 160 179 0
-178 -179 0
-160 -179 0
-177 179 180 0
177 -180 0
-179 -180 0
-169 -180 181 0
169 -181 0
180 -181 0
164 181 182 0
-164 -182 0
-181 -182 0
-182 0
